
******************************************************************************
This program contains Ipopt, a library for large-scale nonlinear optimization.
 Ipopt is released as open source code under the Eclipse Public License (EPL).
         For more information visit http://projects.coin-or.org/Ipopt

This version of Ipopt was compiled from source code available at
    https://github.com/IDAES/Ipopt as part of the Institute for the Design of
    Advanced Energy Systems Process Systems Engineering Framework (IDAES PSE
    Framework) Copyright (c) 2018-2019. See https://github.com/IDAES/idaes-pse.

This version of Ipopt was compiled using HSL, a collection of Fortran codes
    for large-scale scientific computation.  All technical papers, sales and
    publicity material resulting from use of the HSL codes within IPOPT must
    contain the following acknowledgement:
        HSL, a collection of Fortran codes for large-scale scientific
        computation. See http://www.hsl.rl.ac.uk.
******************************************************************************

This is Ipopt version 3.13.2, running with linear solver ma27.

Number of nonzeros in equality constraint Jacobian...:     1210
Number of nonzeros in inequality constraint Jacobian.:        0
Number of nonzeros in Lagrangian Hessian.............:     1376

Total number of variables............................:      480
                     variables with only lower bounds:      128
                variables with lower and upper bounds:      288
                     variables with only upper bounds:        0
Total number of equality constraints.................:      477
Total number of inequality constraints...............:        0
        inequality constraints with only lower bounds:        0
   inequality constraints with lower and upper bounds:        0
        inequality constraints with only upper bounds:        0

iter    objective    inf_pr   inf_du lg(mu)  ||d||  lg(rg) alpha_du alpha_pr  ls
   0  0.0000000e+00 2.06e+00 6.00e-15  -1.0 0.00e+00    -  0.00e+00 0.00e+00   0
   1  1.5751091e+00 2.00e+00 1.35e+05  -1.0 4.01e+06    -  6.26e-02 2.58e-02h  4
   2  2.8154630e+00 1.98e+00 1.48e+05  -1.0 3.73e+06    -  5.88e-02 8.81e-03h  5
   3  4.6731469e+00 1.96e+00 1.66e+05  -1.0 4.16e+06    -  5.60e-02 9.91e-03h  5
   4  7.9453227e+00 1.93e+00 1.94e+05  -1.0 5.05e+06    -  5.50e-02 1.23e-02h  5
   5  3.6128233e+01 1.83e+00 6.85e+05  -1.0 6.41e+06    -  5.77e-02 4.79e-02h  3
   6  2.6951014e+02 2.22e+00 1.48e+06  -1.0 1.25e+07    -  5.29e-02 8.77e-02h  2
   7  3.2134615e+02 2.20e+00 1.49e+06  -1.0 2.79e+07    -  5.20e-02 7.44e-03h  5
   8  3.9463063e+02 2.19e+00 1.50e+06  -1.0 3.14e+07    -  7.25e-02 8.44e-03h  5
   9  5.2374183e+02 2.16e+00 1.53e+06  -1.0 3.65e+07    -  8.07e-02 1.09e-02h  5
iter    objective    inf_pr   inf_du lg(mu)  ||d||  lg(rg) alpha_du alpha_pr  ls
  10  5.7082776e+02 2.15e+00 1.53e+06  -1.0 4.24e+07    -  3.34e-02 3.55e-03h  6
  11  1.4947012e+03 1.88e+02 6.95e+08  -1.0 4.43e+07    -  1.04e-02 5.56e-02w  1
  12  2.0576159e+03 1.88e+02 6.94e+08  -1.0 2.19e+09    -  2.43e-03 8.47e-04w  1
  13  3.8723391e+03 1.87e+02 6.93e+08  -1.0 2.06e+09    -  8.77e-03 1.65e-03w  1
  14  5.7529643e+02 2.15e+00 1.53e+06  -1.0 2.17e+09    -  1.04e-02 4.34e-04h  7
  15  5.8980584e+02 2.15e+00 1.53e+06  -1.0 4.70e+07    -  3.52e-02 9.61e-04h  8
  16  2.8360792e+03 1.98e+00 7.55e+06  -1.0 4.76e+07    -  7.81e-02 7.90e-02h  2
  17  3.1183737e+03 1.97e+00 7.62e+06  -1.0 7.90e+07    -  4.86e-02 3.61e-03h  2
  18  3.1493791e+03 1.97e+00 5.01e+07  -1.0 1.83e+07  -4.0 9.09e-02 3.35e-03h  1
  19  3.1496251e+03 1.97e+00 5.01e+07  -1.0 1.80e+07  -4.5 9.93e-02 3.54e-05h  1
iter    objective    inf_pr   inf_du lg(mu)  ||d||  lg(rg) alpha_du alpha_pr  ls
  20  3.2034158e+03 1.97e+00 5.01e+07  -1.0 9.77e+07    -  8.51e-02 7.48e-04h  1
  21  5.1317695e+03 1.93e+00 3.25e+07  -1.0 1.18e+08    -  1.12e-01 1.82e-02h  1
  22  5.8445736e+03 1.92e+00 3.11e+07  -1.0 1.71e+08    -  7.78e-02 4.17e-03h  3
  23  8.8377827e+03 1.90e+00 4.12e+07  -1.0 2.00e+08    -  1.36e-01 1.29e-02h  1
  24  8.9059554e+03 1.90e+00 4.33e+07  -1.0 2.23e+08    -  6.28e-06 2.61e-04h  1
  25  9.1307454e+03 1.90e+00 5.22e+07  -1.0 2.74e+08    -  1.59e-07 6.73e-04h  1
  26  2.0043901e+04 1.85e+00 3.04e+08  -1.0 3.12e+08    -  6.58e-04 2.24e-02h  3
  27  3.2544496e+04 1.83e+00 3.63e+08  -1.0 6.10e+08    -  3.51e-02 1.06e-02h  1
  28  3.2620605e+04 1.83e+00 3.63e+08  -1.0 1.16e+09    -  6.64e-02 3.22e-05h  1
  29r 3.2620605e+04 1.83e+00 1.00e+03   0.3 0.00e+00    -  0.00e+00 1.58e-07R  2
iter    objective    inf_pr   inf_du lg(mu)  ||d||  lg(rg) alpha_du alpha_pr  ls
  30r 3.2620605e+04 1.19e+00 9.97e+02   0.3 1.61e+03    -  5.58e-03 1.13e-03f  1
  31r 3.2620605e+04 1.19e+00 9.99e+02   0.1 0.00e+00    -  0.00e+00 1.75e-07R  2
  32r 3.2620605e+04 9.90e-01 9.96e+02   0.1 1.24e+03    -  1.17e-02 3.02e-03f  1
  33r 3.2620605e+04 9.90e-01 9.99e+02  -0.0 0.00e+00    -  0.00e+00 3.20e-07R  3
  34r 3.2620606e+04 8.92e-01 9.91e+02  -0.0 1.17e+03    -  1.24e-02 7.70e-03f  1
  35r 3.2620606e+04 8.89e-01 9.93e+02  -0.0 1.21e+00   2.0 6.57e-02 7.03e-03f  1
  36  3.2594708e+04 8.89e-01 7.90e+04  -1.0 2.86e+08    -  2.40e-01 6.78e-05f  1
  37  2.9043201e+04 8.82e-01 6.30e+07  -1.0 3.02e+08    -  2.34e-01 8.45e-03f  2
  38  2.6486656e+04 8.74e-01 2.82e+08  -1.0 1.64e+08    -  3.82e-01 9.62e-03f  2
  39  2.4479332e+04 8.64e-01 1.99e+09  -1.0 1.04e+08    -  3.98e-02 1.10e-02f  2
iter    objective    inf_pr   inf_du lg(mu)  ||d||  lg(rg) alpha_du alpha_pr  ls
  40  2.3121175e+04 8.55e-01 4.03e+09  -1.0 6.75e+07    -  1.57e-04 1.10e-02f  2
  41  2.2149275e+04 9.27e-01 4.71e+09  -1.0 6.99e+07    -  9.54e-05 9.27e-03f  2
  42  2.2107476e+04 9.65e-01 4.68e+09  -1.0 6.31e+07    -  9.52e-02 3.56e-03f  1
  43  2.2103347e+04 9.65e-01 4.68e+09  -1.0 5.29e+07    -  2.58e-01 6.29e-05f  1
  44  2.0415010e+04 1.83e+00 8.97e+10  -1.0 4.08e+07    -  5.78e-04 2.61e-02f  1
  45  2.0412271e+04 1.83e+00 8.97e+10  -1.0 5.17e+07    -  2.87e-02 3.66e-05f  1
  46  2.0393429e+04 1.83e+00 8.97e+10  -1.0 1.81e+07    -  1.53e-04 7.78e-04f  1
  47  2.0344521e+04 1.83e+00 8.96e+10  -1.0 2.05e+07    -  1.82e-06 1.23e-03f  1
  48  1.7389393e+04 1.93e+00 5.72e+10  -1.0 9.63e+07    -  2.14e-04 2.65e-02f  1
  49  1.4506577e+04 3.73e+00 3.01e+10  -1.0 7.92e+07    -  1.39e-03 2.79e-02f  1
iter    objective    inf_pr   inf_du lg(mu)  ||d||  lg(rg) alpha_du alpha_pr  ls
  50  1.4302047e+04 3.72e+00 3.00e+10  -1.0 6.84e+07    -  1.91e-04 2.52e-03f  1
  51  1.4302047e+04 3.72e+00 3.00e+10  -1.0 3.89e+06  -0.4 7.58e-04 8.94e-08h  1
  52  1.4213005e+04 3.72e+00 2.99e+10  -1.0 7.82e+07    -  2.42e-03 1.04e-03f  1
  53  1.1901864e+04 1.00e+01 1.68e+11  -1.0 7.76e+07    -  2.59e-05 2.97e-02f  1
  54r 1.1901864e+04 1.00e+01 1.00e+03   1.0 0.00e+00  -0.9 0.00e+00 1.49e-07R  2
  55r 1.1901864e+04 4.07e+00 9.97e+02   1.0 6.80e+03    -  4.70e-03 1.46e-03f  1
  56  1.1900642e+04 3.46e+00 8.27e+02  -1.0 2.94e+07    -  2.96e-02 3.55e-05f  1
  57  1.1776678e+04 2.33e+01 2.14e+08  -1.0 3.85e+07    -  2.73e-02 2.76e-03f  1
  58  1.1763131e+04 2.31e+01 4.78e+08  -1.0 2.10e+07    -  1.26e-02 5.57e-04f  1
  59  1.1763131e+04 4.44e+01 4.25e+14  -1.0 1.73e+00   6.9 5.54e-02 1.18e-02h  2
iter    objective    inf_pr   inf_du lg(mu)  ||d||  lg(rg) alpha_du alpha_pr  ls
  60  1.1763232e+04 4.37e+01 1.88e+20  -1.0 1.48e+06   6.5 2.58e-08 1.85e-03f  1
WARNING: Problem in step computation; switching to emergency mode.
  61r 1.1763232e+04 4.37e+01 1.00e+03   1.6 0.00e+00  19.8 0.00e+00 0.00e+00R  1
  62r 1.1763232e+04 2.71e+01 5.29e+10   1.6 3.88e+04    -  8.68e-03 1.11e-03f  1
  63  1.1673664e+04 9.16e+00 1.10e+06  -1.0 2.07e+07    -  9.56e-04 3.58e-03f  1
  64  1.1673660e+04 9.16e+00 1.26e+11  -1.0 1.99e+04  -2.5 4.36e-04 9.94e-04h  2
  65  1.1673660e+04 8.37e+01 1.90e+14  -1.0 1.05e+11  -0.2 2.60e-10 8.84e-10f  2
  66  1.1072012e+04 2.75e+02 2.13e+29  -1.0 5.22e+15  -0.7 4.01e-13 8.25e-11f  1
Scaling factors are invalid - setting them all to 1.
Scaling factors are invalid - setting them all to 1.
Scaling factors are invalid - setting them all to 1.
Scaling factors are invalid - setting them all to 1.
Scaling factors are invalid - setting them all to 1.
Scaling factors are invalid - setting them all to 1.
Scaling factors are invalid - setting them all to 1.
Scaling factors are invalid - setting them all to 1.
Scaling factors are invalid - setting them all to 1.
Scaling factors are invalid - setting them all to 1.
Scaling factors are invalid - setting them all to 1.
MA27BD returned iflag=-4 and requires more memory.
 Increase liw from 19240 to 38480 and la from 22500 to 45012 and factorize again.
Scaling factors are invalid - setting them all to 1.
Scaling factors are invalid - setting them all to 1.
Scaling factors are invalid - setting them all to 1.
Scaling factors are invalid - setting them all to 1.
Scaling factors are invalid - setting them all to 1.
Scaling factors are invalid - setting them all to 1.
WARNING: Problem in step computation; switching to emergency mode.
  67r 1.1072012e+04 2.75e+02 9.99e+02   2.4 0.00e+00  19.1 0.00e+00 0.00e+00R  1
  68r 1.1072012e+04 1.61e+01 1.31e+04   2.4 5.37e+04    -  8.75e-03 5.07e-03f  1
  69  1.1071957e+04 1.61e+01 2.65e+02  -1.0 6.94e+09    -  1.93e-10 3.83e-10H  1
iter    objective    inf_pr   inf_du lg(mu)  ||d||  lg(rg) alpha_du alpha_pr  ls
  70r 1.1071957e+04 1.61e+01 9.99e+02   1.2 0.00e+00    -  0.00e+00 1.91e-07R  2
  71r 1.1071957e+04 1.02e+01 4.24e+09   1.2 1.44e+04    -  2.96e-04 1.11e-03f  1
  72  1.1071652e+04 1.12e+01 2.94e+02  -1.0 9.23e+11    -  7.42e-11 2.41e-10H  1
WARNING: Problem in step computation; switching to emergency mode.
  73r 1.1071652e+04 1.12e+01 9.99e+02   1.1 0.00e+00    -  0.00e+00 0.00e+00R  1
  74r 1.1071652e+04 1.11e+01 1.53e+09   1.1 1.12e+04    -  1.02e-02 9.90e-04f  1
  75r 1.1071652e+04 1.46e+01 4.70e+11   1.1 3.08e+03  -4.0 5.52e-03 1.01e-02f  1
WARNING: Problem in step computation; switching to emergency mode.
  76r 1.1071652e+04 1.46e+01 4.70e+11   1.1 3.08e+03  19.7 0.00e+00 0.00e+00R  1
WARNING: Problem in step computation; switching to emergency mode.
Restoration phase is called at point that is almost feasible,
  with constraint violation 0.000000e+00. Abort.
Restoration phase in the restoration phase failed.

Number of Iterations....: 76

                                   (scaled)                 (unscaled)
Objective...............:   1.1071651973041335e+04    1.1071651973041335e+04
Dual infeasibility......:   4.7048406843787939e+11    4.7048406843787939e+11
Constraint violation....:   1.4612348398329118e+01    1.4612348398329118e+01
Complementarity.........:   1.8788334909197416e+07    1.8788334909197416e+07
Overall NLP error.......:   4.7048406843787939e+11    4.7048406843787939e+11


Number of objective function evaluations             = 184
Number of objective gradient evaluations             = 71
Number of equality constraint evaluations            = 184
Number of inequality constraint evaluations          = 0
Number of equality constraint Jacobian evaluations   = 82
Number of inequality constraint Jacobian evaluations = 0
Number of Lagrangian Hessian evaluations             = 77
Total CPU secs in IPOPT (w/o function evaluations)   =      0.202
Total CPU secs in NLP function evaluations           =      1.882

EXIT: Restoration Failed!
